data/lp_files/pEFS/28_9.lp
\ Model foo
\ LP format - for model browsing. Use MPS format to capture full model detail.
Minimize
  z
Subject To
 allocateEach[1]: x[1,1] + x[2,1] = 1
 allocateEach[2]: x[1,2] + x[2,2] = 1
 allocateEach[3]: x[1,3] + x[2,3] = 1
 allocateEach[4]: x[1,4] + x[2,4] = 1
 allocateEach[5]: x[1,5] + x[2,5] = 1
 allocateEach[6]: x[1,6] + x[2,6] = 1
 allocateEach[7]: x[1,7] + x[2,7] = 1
 allocateEach[8]: x[1,8] + x[2,8] = 1
 allocateAllCash: cashProportion[1] + cashProportion[2] = 1
 findWorstP[1,2]: z + 0.1693967780732811 cashProportion[1]
   - 0.1693967780732811 cashProportion[2] + 0.1221350769908356 x[1,1]
   + 0.1578100384530686 x[1,2] + 0.00713160435688513 x[1,3]
   + 0.1470533430454153 x[1,4] + 0.0688936696424034 x[1,5]
   + 0.143682347161757 x[1,6] + 0.048430538851151 x[1,7]
   + 0.1354666034252028 x[1,8] - 0.1221350769908356 x[2,1]
   - 0.1578100384530686 x[2,2] - 0.00713160435688513 x[2,3]
   - 0.1470533430454153 x[2,4] - 0.0688936696424034 x[2,5]
   - 0.143682347161757 x[2,6] - 0.048430538851151 x[2,7]
   - 0.1354666034252028 x[2,8] >= 0
 findWorstP[2,1]: z - 0.1872553976368369 cashProportion[1]
   + 0.1872553976368369 cashProportion[2] - 0.1231578750257476 x[1,1]
   - 0.0264217366065577 x[1,2] - 0.1086830327884201 x[1,3]
   - 0.1694848604011011 x[1,4] - 0.1672939722487501 x[1,5]
   - 0.0618691833792109 x[1,6] - 0.0650337995992735 x[1,7]
   - 0.0908001423141022 x[1,8] + 0.1231578750257476 x[2,1]
   + 0.0264217366065577 x[2,2] + 0.1086830327884201 x[2,3]
   + 0.1694848604011011 x[2,4] + 0.1672939722487501 x[2,5]
   + 0.0618691833792109 x[2,6] + 0.0650337995992735 x[2,7]
   + 0.0908001423141022 x[2,8] >= 0
Bounds
 z <= 1
 -infinity <= cashProportion[1] <= 1
 -infinity <= cashProportion[2] <= 1
Binaries
 x[1,1] x[1,2] x[1,3] x[1,4] x[1,5] x[1,6] x[1,7] x[1,8] x[2,1] x[2,2]
 x[2,3] x[2,4] x[2,5] x[2,6] x[2,7] x[2,8]
End
